g3 1 1 0	# problem unknown
 32 361 1 0 6 	# vars, constraints, objectives, ranges, eqns
 0 0 0 0 0 0	# nonlinear constrs, objs; ccons: lin, nonlin, nd, nzlb
 0 0	# network constraints: nonlinear, linear
 0 0 0 	# nonlinear vars in constraints, objectives, both
 0 0 0 1	# linear network variables; functions; arith, flags
 0 0 0 0 0 	# discrete variables: binary, integer, nonlinear (b,c,o)
 1291 1 	# nonzeros in Jacobian, obj. gradient
 0 0	# max name lengths: constraints, variables
 0 0 0 0 0	# common exprs: b,c,o,c1,o1
C0
n0
C1
n0
C2
n0
C3
n0
C4
n0
C5
n0
C6
n0
C7
n0
C8
n0
C9
n0
C10
n0
C11
n0
C12
n0
C13
n0
C14
n0
C15
n0
C16
n0
C17
n0
C18
n0
C19
n0
C20
n0
C21
n0
C22
n0
C23
n0
C24
n0
C25
n0
C26
n0
C27
n0
C28
n0
C29
n0
C30
n0
C31
n0
C32
n0
C33
n0
C34
n0
C35
n0
C36
n0
C37
n0
C38
n0
C39
n0
C40
n0
C41
n0
C42
n0
C43
n0
C44
n0
C45
n0
C46
n0
C47
n0
C48
n0
C49
n0
C50
n0
C51
n0
C52
n0
C53
n0
C54
n0
C55
n0
C56
n0
C57
n0
C58
n0
C59
n0
C60
n0
C61
n0
C62
n0
C63
n0
C64
n0
C65
n0
C66
n0
C67
n0
C68
n0
C69
n0
C70
n0
C71
n0
C72
n0
C73
n0
C74
n0
C75
n0
C76
n0
C77
n0
C78
n0
C79
n0
C80
n0
C81
n0
C82
n0
C83
n0
C84
n0
C85
n0
C86
n0
C87
n0
C88
n0
C89
n0
C90
n0
C91
n0
C92
n0
C93
n0
C94
n0
C95
n0
C96
n0
C97
n0
C98
n0
C99
n0
C100
n0
C101
n0
C102
n0
C103
n0
C104
n0
C105
n0
C106
n0
C107
n0
C108
n0
C109
n0
C110
n0
C111
n0
C112
n0
C113
n0
C114
n0
C115
n0
C116
n0
C117
n0
C118
n0
C119
n0
C120
n0
C121
n0
C122
n0
C123
n0
C124
n0
C125
n0
C126
n0
C127
n0
C128
n0
C129
n0
C130
n0
C131
n0
C132
n0
C133
n0
C134
n0
C135
n0
C136
n0
C137
n0
C138
n0
C139
n0
C140
n0
C141
n0
C142
n0
C143
n0
C144
n0
C145
n0
C146
n0
C147
n0
C148
n0
C149
n0
C150
n0
C151
n0
C152
n0
C153
n0
C154
n0
C155
n0
C156
n0
C157
n0
C158
n0
C159
n0
C160
n0
C161
n0
C162
n0
C163
n0
C164
n0
C165
n0
C166
n0
C167
n0
C168
n0
C169
n0
C170
n0
C171
n0
C172
n0
C173
n0
C174
n0
C175
n0
C176
n0
C177
n0
C178
n0
C179
n0
C180
n0
C181
n0
C182
n0
C183
n0
C184
n0
C185
n0
C186
n0
C187
n0
C188
n0
C189
n0
C190
n0
C191
n0
C192
n0
C193
n0
C194
n0
C195
n0
C196
n0
C197
n0
C198
n0
C199
n0
C200
n0
C201
n0
C202
n0
C203
n0
C204
n0
C205
n0
C206
n0
C207
n0
C208
n0
C209
n0
C210
n0
C211
n0
C212
n0
C213
n0
C214
n0
C215
n0
C216
n0
C217
n0
C218
n0
C219
n0
C220
n0
C221
n0
C222
n0
C223
n0
C224
n0
C225
n0
C226
n0
C227
n0
C228
n0
C229
n0
C230
n0
C231
n0
C232
n0
C233
n0
C234
n0
C235
n0
C236
n0
C237
n0
C238
n0
C239
n0
C240
n0
C241
n0
C242
n0
C243
n0
C244
n0
C245
n0
C246
n0
C247
n0
C248
n0
C249
n0
C250
n0
C251
n0
C252
n0
C253
n0
C254
n0
C255
n0
C256
n0
C257
n0
C258
n0
C259
n0
C260
n0
C261
n0
C262
n0
C263
n0
C264
n0
C265
n0
C266
n0
C267
n0
C268
n0
C269
n0
C270
n0
C271
n0
C272
n0
C273
n0
C274
n0
C275
n0
C276
n0
C277
n0
C278
n0
C279
n0
C280
n0
C281
n0
C282
n0
C283
n0
C284
n0
C285
n0
C286
n0
C287
n0
C288
n0
C289
n0
C290
n0
C291
n0
C292
n0
C293
n0
C294
n0
C295
n0
C296
n0
C297
n0
C298
n0
C299
n0
C300
n0
C301
n0
C302
n0
C303
n0
C304
n0
C305
n0
C306
n0
C307
n0
C308
n0
C309
n0
C310
n0
C311
n0
C312
n0
C313
n0
C314
n0
C315
n0
C316
n0
C317
n0
C318
n0
C319
n0
C320
n0
C321
n0
C322
n0
C323
n0
C324
n0
C325
n0
C326
n0
C327
n0
C328
n0
C329
n0
C330
n0
C331
n0
C332
n0
C333
n0
C334
n0
C335
n0
C336
n0
C337
n0
C338
n0
C339
n0
C340
n0
C341
n0
C342
n0
C343
n0
C344
n0
C345
n0
C346
n0
C347
n0
C348
n0
C349
n0
C350
n0
C351
n0
C352
n0
C353
n0
C354
n0
C355
n0
C356
n0
C357
n0
C358
n0
C359
n0
C360
n0
O0 0
n0
x0
r
4 0.0
4 0.0
4 0.0
4 0.0
4 0.0
4 0.0
1 0.0
1 0.0
1 0.0
1 0.0
1 0.0
1 0.0
1 0.0
1 0.0
1 0.0
1 0.0
1 0.0
1 0.0
1 0.0
1 0.0
1 0.0
1 0.0
1 0.0
1 0.0
1 0.0
1 0.0
1 0.0
1 0.0
1 0.0
1 0.0
1 0.0
1 0.0
1 0.0
1 0.0
1 0.0
1 0.0
1 0.0
1 0.0
1 0.0
1 0.0
1 0.0
1 0.0
1 0.0
1 0.0
1 0.0
1 0.0
1 0.0
1 0.0
1 0.0
1 0.0
1 0.0
1 0.0
1 0.0
1 0.0
1 0.0
1 0.0
1 0.0
1 0.0
1 0.0
1 0.0
1 0.0
1 0.0
1 0.0
1 0.0
1 0.0
1 0.0
1 0.0
1 0.0
1 0.0
1 0.0
1 0.0
1 0.0
1 0.0
1 0.0
1 0.0
1 0.0
1 0.0
1 0.0
1 0.0
1 0.0
1 0.0
1 0.0
1 0.0
1 0.0
1 0.0
1 0.0
1 0.0
1 0.0
1 0.0
1 0.0
1 0.0
1 0.0
1 0.0
1 0.0
1 0.0
1 0.0
1 0.0
1 0.0
1 0.0
1 0.0
1 0.0
1 0.0
1 0.0
1 0.0
1 0.0
1 0.0
1 0.0
1 0.0
1 0.0
1 0.0
1 0.0
1 0.0
1 0.0
1 0.0
1 0.0
1 0.0
1 0.0
1 0.0
1 0.0
1 0.0
1 0.0
1 0.0
1 0.0
1 0.0
1 0.0
1 0.0
1 0.0
1 0.0
1 0.0
1 0.0
1 0.0
1 0.0
1 0.0
1 0.0
1 0.0
1 0.0
1 0.0
1 0.0
1 0.0
1 0.0
1 0.0
1 0.0
1 0.0
1 0.0
1 0.0
1 0.0
1 0.0
1 0.0
1 0.0
1 0.0
1 0.0
1 0.0
1 0.0
1 0.0
1 0.0
1 0.0
1 0.0
1 0.0
1 0.0
1 0.0
1 0.0
1 0.0
1 0.0
1 0.0
1 0.0
1 0.0
1 0.0
1 0.0
1 0.0
1 0.0
1 0.0
1 0.0
1 0.0
1 0.0
1 0.0
1 0.0
1 0.0
1 0.0
1 0.0
1 0.0
1 0.0
1 0.0
1 0.0
1 0.0
1 0.0
1 0.0
1 0.0
1 0.0
1 0.0
1 0.0
1 0.0
1 0.0
1 0.0
1 0.0
1 0.0
1 0.0
1 0.0
1 0.0
1 0.0
1 0.0
1 0.0
1 0.0
1 0.0
1 0.0
1 0.0
1 0.0
1 0.0
1 0.0
1 0.0
1 0.0
1 0.0
1 0.0
1 0.0
1 0.0
1 0.0
1 0.0
1 0.0
1 0.0
1 0.0
1 0.0
1 0.0
1 0.0
1 0.0
1 0.0
1 0.0
1 0.0
1 0.0
1 0.0
1 0.0
1 0.0
1 0.0
1 0.0
1 0.0
1 0.0
1 0.0
1 0.0
1 0.0
1 0.0
1 0.0
1 0.0
1 0.0
1 0.0
1 0.0
1 0.0
1 0.0
1 0.0
1 0.0
1 0.0
1 0.0
1 0.0
1 0.0
1 0.0
1 0.0
1 0.0
1 0.0
1 0.0
1 0.0
1 0.0
1 0.0
1 0.0
1 0.0
1 0.0
1 0.0
1 0.0
1 0.0
1 0.0
1 0.0
1 0.0
1 0.0
1 0.0
1 0.0
1 0.0
1 0.0
1 0.0
1 0.0
1 0.0
1 0.0
1 0.0
1 0.0
1 0.0
1 0.0
1 0.0
1 0.0
1 0.0
1 0.0
1 0.0
1 0.0
1 0.0
1 0.0
1 0.0
1 0.0
1 0.0
1 0.0
1 0.0
1 0.0
1 0.0
1 0.0
1 0.0
1 0.0
1 0.0
1 0.0
1 0.0
1 0.0
1 0.0
1 0.0
1 0.0
1 0.0
1 0.0
1 0.0
1 0.0
1 0.0
1 0.0
1 0.0
1 0.0
1 0.0
1 0.0
1 0.0
1 0.0
1 0.0
1 0.0
1 0.0
1 0.0
1 0.0
1 0.0
1 0.0
1 0.0
1 0.0
1 0.0
1 0.0
1 0.0
1 0.0
1 0.0
1 0.0
1 0.0
1 0.0
1 0.0
1 0.0
1 0.0
1 0.0
1 0.0
1 0.0
1 0.0
1 0.0
1 0.0
1 0.0
1 0.0
1 0.0
1 0.0
1 0.0
1 0.0
1 0.0
1 0.0
1 0.0
1 0.0
1 0.0
1 0.0
1 0.0
1 0.0
1 0.0
1 0.0
1 0.0
b
2 0
0 0 1
0 0 1
0 0 1
0 0 1
0 0 1
2 0
2 0
2 0
2 0
2 0
2 0
2 0
2 0
2 0
2 0
2 0
2 0
2 0
2 0
2 0
2 0
2 0
2 0
2 0
2 0
2 0
2 0
2 0
2 0
2 0
2 0
k31
91
135
179
223
267
311
344
377
410
443
476
509
542
575
608
641
674
707
740
773
806
839
872
905
938
971
1016
1061
1106
1151
1196
J0 1
0 1
J1 2
26 1
31 -1
J2 2
27 1
31 -1
J3 2
28 1
31 -1
J4 2
29 1
31 -1
J5 2
30 1
31 -1
J6 2
1 1
6 -1
J7 2
2 1
6 -1
J8 2
1 1
7 -1
J9 2
3 1
7 -1
J10 2
1 1
8 -1
J11 2
4 1
8 -1
J12 2
1 1
9 -1
J13 2
5 1
9 -1
J14 2
2 1
10 -1
J15 2
3 1
10 -1
J16 2
2 1
11 -1
J17 2
4 1
11 -1
J18 2
2 1
12 -1
J19 2
5 1
12 -1
J20 2
3 1
13 -1
J21 2
4 1
13 -1
J22 2
3 1
14 -1
J23 2
5 1
14 -1
J24 2
4 1
15 -1
J25 2
5 1
15 -1
J26 2
6 1
16 -1
J27 2
7 1
16 -1
J28 2
10 1
16 -1
J29 2
6 1
17 -1
J30 2
8 1
17 -1
J31 2
11 1
17 -1
J32 2
6 1
18 -1
J33 2
9 1
18 -1
J34 2
12 1
18 -1
J35 2
7 1
19 -1
J36 2
8 1
19 -1
J37 2
13 1
19 -1
J38 2
7 1
20 -1
J39 2
9 1
20 -1
J40 2
14 1
20 -1
J41 2
8 1
21 -1
J42 2
9 1
21 -1
J43 2
15 1
21 -1
J44 2
10 1
22 -1
J45 2
11 1
22 -1
J46 2
13 1
22 -1
J47 2
10 1
23 -1
J48 2
12 1
23 -1
J49 2
14 1
23 -1
J50 2
11 1
24 -1
J51 2
12 1
24 -1
J52 2
15 1
24 -1
J53 2
13 1
25 -1
J54 2
14 1
25 -1
J55 2
15 1
25 -1
J56 2
16 1
26 -1
J57 2
17 1
26 -1
J58 2
19 1
26 -1
J59 2
22 1
26 -1
J60 2
16 1
27 -1
J61 2
18 1
27 -1
J62 2
20 1
27 -1
J63 2
23 1
27 -1
J64 2
17 1
28 -1
J65 2
18 1
28 -1
J66 2
21 1
28 -1
J67 2
24 1
28 -1
J68 2
19 1
29 -1
J69 2
20 1
29 -1
J70 2
21 1
29 -1
J71 2
25 1
29 -1
J72 2
22 1
30 -1
J73 2
23 1
30 -1
J74 2
24 1
30 -1
J75 2
25 1
30 -1
J76 4
0 1
1 -1
2 -1
6 1
J77 4
0 1
1 -1
3 -1
7 1
J78 4
0 1
1 -1
4 -1
8 1
J79 4
0 1
1 -1
5 -1
9 1
J80 4
0 1
1 -1
10 -1
16 1
J81 4
0 1
1 -1
11 -1
17 1
J82 4
0 1
1 -1
12 -1
18 1
J83 4
0 1
1 -1
13 -1
19 1
J84 4
0 1
1 -1
14 -1
20 1
J85 4
0 1
1 -1
15 -1
21 1
J86 4
0 1
1 -1
22 -1
26 1
J87 4
0 1
1 -1
23 -1
27 1
J88 4
0 1
1 -1
24 -1
28 1
J89 4
0 1
1 -1
25 -1
29 1
J90 4
0 1
1 -1
30 -1
31 1
J91 4
0 1
2 -1
3 -1
10 1
J92 4
0 1
2 -1
4 -1
11 1
J93 4
0 1
2 -1
5 -1
12 1
J94 4
0 1
2 -1
7 -1
16 1
J95 4
0 1
2 -1
8 -1
17 1
J96 4
0 1
2 -1
9 -1
18 1
J97 4
0 1
2 -1
13 -1
22 1
J98 4
0 1
2 -1
14 -1
23 1
J99 4
0 1
2 -1
15 -1
24 1
J100 4
0 1
2 -1
19 -1
26 1
J101 4
0 1
2 -1
20 -1
27 1
J102 4
0 1
2 -1
21 -1
28 1
J103 4
0 1
2 -1
25 -1
30 1
J104 4
0 1
2 -1
29 -1
31 1
J105 4
0 1
3 -1
4 -1
13 1
J106 4
0 1
3 -1
5 -1
14 1
J107 4
0 1
3 -1
6 -1
16 1
J108 4
0 1
3 -1
8 -1
19 1
J109 4
0 1
3 -1
9 -1
20 1
J110 4
0 1
3 -1
11 -1
22 1
J111 4
0 1
3 -1
12 -1
23 1
J112 4
0 1
3 -1
15 -1
25 1
J113 4
0 1
3 -1
17 -1
26 1
J114 4
0 1
3 -1
18 -1
27 1
J115 4
0 1
3 -1
21 -1
29 1
J116 4
0 1
3 -1
24 -1
30 1
J117 4
0 1
3 -1
28 -1
31 1
J118 4
0 1
4 -1
5 -1
15 1
J119 4
0 1
4 -1
6 -1
17 1
J120 4
0 1
4 -1
7 -1
19 1
J121 4
0 1
4 -1
9 -1
21 1
J122 4
0 1
4 -1
10 -1
22 1
J123 4
0 1
4 -1
12 -1
24 1
J124 4
0 1
4 -1
14 -1
25 1
J125 4
0 1
4 -1
16 -1
26 1
J126 4
0 1
4 -1
18 -1
28 1
J127 4
0 1
4 -1
20 -1
29 1
J128 4
0 1
4 -1
23 -1
30 1
J129 4
0 1
4 -1
27 -1
31 1
J130 4
0 1
5 -1
6 -1
18 1
J131 4
0 1
5 -1
7 -1
20 1
J132 4
0 1
5 -1
8 -1
21 1
J133 4
0 1
5 -1
10 -1
23 1
J134 4
0 1
5 -1
11 -1
24 1
J135 4
0 1
5 -1
13 -1
25 1
J136 4
0 1
5 -1
16 -1
27 1
J137 4
0 1
5 -1
17 -1
28 1
J138 4
0 1
5 -1
19 -1
29 1
J139 4
0 1
5 -1
22 -1
30 1
J140 4
0 1
5 -1
26 -1
31 1
J141 4
1 1
6 -1
7 -1
16 1
J142 4
1 1
6 -1
8 -1
17 1
J143 4
1 1
6 -1
9 -1
18 1
J144 4
2 1
6 -1
10 -1
16 1
J145 4
2 1
6 -1
11 -1
17 1
J146 4
2 1
6 -1
12 -1
18 1
J147 4
0 1
6 -1
13 -1
26 1
J148 4
0 1
6 -1
14 -1
27 1
J149 4
0 1
6 -1
15 -1
28 1
J150 4
1 1
6 -1
19 -1
26 1
J151 4
1 1
6 -1
20 -1
27 1
J152 4
1 1
6 -1
21 -1
28 1
J153 4
2 1
6 -1
22 -1
26 1
J154 4
2 1
6 -1
23 -1
27 1
J155 4
2 1
6 -1
24 -1
28 1
J156 4
0 1
6 -1
25 -1
31 1
J157 4
1 1
6 -1
29 -1
31 1
J158 4
2 1
6 -1
30 -1
31 1
J159 4
1 1
7 -1
8 -1
19 1
J160 4
1 1
7 -1
9 -1
20 1
J161 4
3 1
7 -1
10 -1
16 1
J162 4
0 1
7 -1
11 -1
26 1
J163 4
0 1
7 -1
12 -1
27 1
J164 4
3 1
7 -1
13 -1
19 1
J165 4
3 1
7 -1
14 -1
20 1
J166 4
0 1
7 -1
15 -1
29 1
J167 4
1 1
7 -1
17 -1
26 1
J168 4
1 1
7 -1
18 -1
27 1
J169 4
1 1
7 -1
21 -1
29 1
J170 4
3 1
7 -1
22 -1
26 1
J171 4
3 1
7 -1
23 -1
27 1
J172 4
0 1
7 -1
24 -1
31 1
J173 4
3 1
7 -1
25 -1
29 1
J174 4
1 1
7 -1
28 -1
31 1
J175 4
3 1
7 -1
30 -1
31 1
J176 4
1 1
8 -1
9 -1
21 1
J177 4
0 1
8 -1
10 -1
26 1
J178 4
4 1
8 -1
11 -1
17 1
J179 4
0 1
8 -1
12 -1
28 1
J180 4
4 1
8 -1
13 -1
19 1
J181 4
0 1
8 -1
14 -1
29 1
J182 4
4 1
8 -1
15 -1
21 1
J183 4
1 1
8 -1
16 -1
26 1
J184 4
1 1
8 -1
18 -1
28 1
J185 4
1 1
8 -1
20 -1
29 1
J186 4
4 1
8 -1
22 -1
26 1
J187 4
0 1
8 -1
23 -1
31 1
J188 4
4 1
8 -1
24 -1
28 1
J189 4
4 1
8 -1
25 -1
29 1
J190 4
1 1
8 -1
27 -1
31 1
J191 4
4 1
8 -1
30 -1
31 1
J192 4
0 1
9 -1
10 -1
27 1
J193 4
0 1
9 -1
11 -1
28 1
J194 4
5 1
9 -1
12 -1
18 1
J195 4
0 1
9 -1
13 -1
29 1
J196 4
5 1
9 -1
14 -1
20 1
J197 4
5 1
9 -1
15 -1
21 1
J198 4
1 1
9 -1
16 -1
27 1
J199 4
1 1
9 -1
17 -1
28 1
J200 4
1 1
9 -1
19 -1
29 1
J201 4
0 1
9 -1
22 -1
31 1
J202 4
5 1
9 -1
23 -1
27 1
J203 4
5 1
9 -1
24 -1
28 1
J204 4
5 1
9 -1
25 -1
29 1
J205 4
1 1
9 -1
26 -1
31 1
J206 4
5 1
9 -1
30 -1
31 1
J207 4
2 1
10 -1
11 -1
22 1
J208 4
2 1
10 -1
12 -1
23 1
J209 4
3 1
10 -1
13 -1
22 1
J210 4
3 1
10 -1
14 -1
23 1
J211 4
0 1
10 -1
15 -1
30 1
J212 4
2 1
10 -1
17 -1
26 1
J213 4
2 1
10 -1
18 -1
27 1
J214 4
3 1
10 -1
19 -1
26 1
J215 4
3 1
10 -1
20 -1
27 1
J216 4
0 1
10 -1
21 -1
31 1
J217 4
2 1
10 -1
24 -1
30 1
J218 4
3 1
10 -1
25 -1
30 1
J219 4
2 1
10 -1
28 -1
31 1
J220 4
3 1
10 -1
29 -1
31 1
J221 4
2 1
11 -1
12 -1
24 1
J222 4
4 1
11 -1
13 -1
22 1
J223 4
0 1
11 -1
14 -1
30 1
J224 4
4 1
11 -1
15 -1
24 1
J225 4
2 1
11 -1
16 -1
26 1
J226 4
2 1
11 -1
18 -1
28 1
J227 4
4 1
11 -1
19 -1
26 1
J228 4
0 1
11 -1
20 -1
31 1
J229 4
4 1
11 -1
21 -1
28 1
J230 4
2 1
11 -1
23 -1
30 1
J231 4
4 1
11 -1
25 -1
30 1
J232 4
2 1
11 -1
27 -1
31 1
J233 4
4 1
11 -1
29 -1
31 1
J234 4
0 1
12 -1
13 -1
30 1
J235 4
5 1
12 -1
14 -1
23 1
J236 4
5 1
12 -1
15 -1
24 1
J237 4
2 1
12 -1
16 -1
27 1
J238 4
2 1
12 -1
17 -1
28 1
J239 4
0 1
12 -1
19 -1
31 1
J240 4
5 1
12 -1
20 -1
27 1
J241 4
5 1
12 -1
21 -1
28 1
J242 4
2 1
12 -1
22 -1
30 1
J243 4
5 1
12 -1
25 -1
30 1
J244 4
2 1
12 -1
26 -1
31 1
J245 4
5 1
12 -1
29 -1
31 1
J246 4
3 1
13 -1
14 -1
25 1
J247 4
4 1
13 -1
15 -1
25 1
J248 4
3 1
13 -1
16 -1
26 1
J249 4
4 1
13 -1
17 -1
26 1
J250 4
0 1
13 -1
18 -1
31 1
J251 4
3 1
13 -1
20 -1
29 1
J252 4
4 1
13 -1
21 -1
29 1
J253 4
3 1
13 -1
23 -1
30 1
J254 4
4 1
13 -1
24 -1
30 1
J255 4
3 1
13 -1
27 -1
31 1
J256 4
4 1
13 -1
28 -1
31 1
J257 4
5 1
14 -1
15 -1
25 1
J258 4
3 1
14 -1
16 -1
27 1
J259 4
0 1
14 -1
17 -1
31 1
J260 4
5 1
14 -1
18 -1
27 1
J261 4
3 1
14 -1
19 -1
29 1
J262 4
5 1
14 -1
21 -1
29 1
J263 4
3 1
14 -1
22 -1
30 1
J264 4
5 1
14 -1
24 -1
30 1
J265 4
3 1
14 -1
26 -1
31 1
J266 4
5 1
14 -1
28 -1
31 1
J267 4
0 1
15 -1
16 -1
31 1
J268 4
4 1
15 -1
17 -1
28 1
J269 4
5 1
15 -1
18 -1
28 1
J270 4
4 1
15 -1
19 -1
29 1
J271 4
5 1
15 -1
20 -1
29 1
J272 4
4 1
15 -1
22 -1
30 1
J273 4
5 1
15 -1
23 -1
30 1
J274 4
4 1
15 -1
26 -1
31 1
J275 4
5 1
15 -1
27 -1
31 1
J276 4
6 1
16 -1
17 -1
26 1
J277 4
6 1
16 -1
18 -1
27 1
J278 4
7 1
16 -1
19 -1
26 1
J279 4
7 1
16 -1
20 -1
27 1
J280 4
1 1
16 -1
21 -1
31 1
J281 4
10 1
16 -1
22 -1
26 1
J282 4
10 1
16 -1
23 -1
27 1
J283 4
2 1
16 -1
24 -1
31 1
J284 4
3 1
16 -1
25 -1
31 1
J285 4
6 1
16 -1
28 -1
31 1
J286 4
7 1
16 -1
29 -1
31 1
J287 4
10 1
16 -1
30 -1
31 1
J288 4
6 1
17 -1
18 -1
28 1
J289 4
8 1
17 -1
19 -1
26 1
J290 4
1 1
17 -1
20 -1
31 1
J291 4
8 1
17 -1
21 -1
28 1
J292 4
11 1
17 -1
22 -1
26 1
J293 4
2 1
17 -1
23 -1
31 1
J294 4
11 1
17 -1
24 -1
28 1
J295 4
4 1
17 -1
25 -1
31 1
J296 4
6 1
17 -1
27 -1
31 1
J297 4
8 1
17 -1
29 -1
31 1
J298 4
11 1
17 -1
30 -1
31 1
J299 4
1 1
18 -1
19 -1
31 1
J300 4
9 1
18 -1
20 -1
27 1
J301 4
9 1
18 -1
21 -1
28 1
J302 4
2 1
18 -1
22 -1
31 1
J303 4
12 1
18 -1
23 -1
27 1
J304 4
12 1
18 -1
24 -1
28 1
J305 4
5 1
18 -1
25 -1
31 1
J306 4
6 1
18 -1
26 -1
31 1
J307 4
9 1
18 -1
29 -1
31 1
J308 4
12 1
18 -1
30 -1
31 1
J309 4
7 1
19 -1
20 -1
29 1
J310 4
8 1
19 -1
21 -1
29 1
J311 4
13 1
19 -1
22 -1
26 1
J312 4
3 1
19 -1
23 -1
31 1
J313 4
4 1
19 -1
24 -1
31 1
J314 4
13 1
19 -1
25 -1
29 1
J315 4
7 1
19 -1
27 -1
31 1
J316 4
8 1
19 -1
28 -1
31 1
J317 4
13 1
19 -1
30 -1
31 1
J318 4
9 1
20 -1
21 -1
29 1
J319 4
3 1
20 -1
22 -1
31 1
J320 4
14 1
20 -1
23 -1
27 1
J321 4
5 1
20 -1
24 -1
31 1
J322 4
14 1
20 -1
25 -1
29 1
J323 4
7 1
20 -1
26 -1
31 1
J324 4
9 1
20 -1
28 -1
31 1
J325 4
14 1
20 -1
30 -1
31 1
J326 4
4 1
21 -1
22 -1
31 1
J327 4
5 1
21 -1
23 -1
31 1
J328 4
15 1
21 -1
24 -1
28 1
J329 4
15 1
21 -1
25 -1
29 1
J330 4
8 1
21 -1
26 -1
31 1
J331 4
9 1
21 -1
27 -1
31 1
J332 4
15 1
21 -1
30 -1
31 1
J333 4
10 1
22 -1
23 -1
30 1
J334 4
11 1
22 -1
24 -1
30 1
J335 4
13 1
22 -1
25 -1
30 1
J336 4
10 1
22 -1
27 -1
31 1
J337 4
11 1
22 -1
28 -1
31 1
J338 4
13 1
22 -1
29 -1
31 1
J339 4
12 1
23 -1
24 -1
30 1
J340 4
14 1
23 -1
25 -1
30 1
J341 4
10 1
23 -1
26 -1
31 1
J342 4
12 1
23 -1
28 -1
31 1
J343 4
14 1
23 -1
29 -1
31 1
J344 4
15 1
24 -1
25 -1
30 1
J345 4
11 1
24 -1
26 -1
31 1
J346 4
12 1
24 -1
27 -1
31 1
J347 4
15 1
24 -1
29 -1
31 1
J348 4
13 1
25 -1
26 -1
31 1
J349 4
14 1
25 -1
27 -1
31 1
J350 4
15 1
25 -1
28 -1
31 1
J351 4
16 1
26 -1
27 -1
31 1
J352 4
17 1
26 -1
28 -1
31 1
J353 4
19 1
26 -1
29 -1
31 1
J354 4
22 1
26 -1
30 -1
31 1
J355 4
18 1
27 -1
28 -1
31 1
J356 4
20 1
27 -1
29 -1
31 1
J357 4
23 1
27 -1
30 -1
31 1
J358 4
21 1
28 -1
29 -1
31 1
J359 4
24 1
28 -1
30 -1
31 1
J360 4
25 1
29 -1
30 -1
31 1
G0 1
31 -1
